p cnf 1295
-23 -401
-24 -404
-25 -407
-26 -410
-27 -413
-28 -416
-29 -419
-30 -422
-31 -425
-32 -428
-33 -431
-34 -434
-35 -437
-36 -440
-37 -443
-38 -446
-39 -449
-40 -452
-41 -455
-42 -458
-43 -461
-44 -464
-45 465
-46 466
-47 467
-48 468
-49 469
-50 470
-51 -24
-51 -25
24 25 51
-52 -26
-52 -27
26 27 52
-53 -28
-53 -29
28 29 53
-54 -30
-54 -31
30 31 54
-55 -32
-55 -33
32 33 55
-56 -34
-56 -35
34 35 56
-57 -36
-57 -37
36 37 57
-58 -38
-58 -39
38 39 58
-59 -40
-59 -41
40 41 59
-60 -42
-60 -43
42 43 60
-61 -44
-61 -45
44 45 61
-62 -46
-62 -47
46 47 62
-63 -48
-63 -49
48 49 63
-64 51
-64 52
-51 -52 64
-65 53
-65 54
-53 -54 65
-66 55
-66 56
-55 -56 66
-67 57
-67 58
-57 -58 67
-68 59
-68 60
-59 -60 68
-69 61
-69 62
-61 -62 69
-70 -50
-70 63
50 -63 70
-71 64
-71 65
-64 -65 71
-72 66
-72 67
-66 -67 72
-73 68
-73 69
-68 -69 73
-74 71
-74 72
-71 -72 74
-75 70
-75 73
-70 -73 75
-76 74
-76 75
-74 -75 76
-77 -23
-77 24
23 -24 77
-78 23
-78 -24
-23 24 78
-79 -77
-79 -78
77 78 79
-80 23
-80 24
-23 -24 80
-81 -23
-81 -79
23 79 81
-82 23
-82 79
-23 -79 82
-83 -81
-83 -82
81 82 83
-84 23
-84 -79
-23 79 84
-85 -80
-85 -84
80 84 85
-86 -24
-86 25
24 -25 86
-87 24
-87 -25
-24 25 87
-88 -86
-88 -87
86 87 88
-89 24
-89 25
-24 -25 89
-90 85
-90 -88
-85 88 90
-91 -85
-91 88
85 -88 91
-92 -90
-92 -91
90 91 92
-93 -85
-93 -88
85 88 93
-94 -89
-94 -93
89 93 94
-95 -25
-95 26
25 -26 95
-96 25
-96 -26
-25 26 96
-97 -95
-97 -96
95 96 97
-98 25
-98 26
-25 -26 98
-99 94
-99 -97
-94 97 99
-100 -94
-100 97
94 -97 100
-101 -99
-101 -100
99 100 101
-102 -94
-102 -97
94 97 102
-103 -98
-103 -102
98 102 103
-104 -26
-104 27
26 -27 104
-105 26
-105 -27
-26 27 105
-106 -104
-106 -105
104 105 106
-107 26
-107 27
-26 -27 107
-108 103
-108 -106
-103 106 108
-109 -103
-109 106
103 -106 109
-110 -108
-110 -109
108 109 110
-111 -103
-111 -106
103 106 111
-112 -107
-112 -111
107 111 112
-113 -27
-113 28
27 -28 113
-114 27
-114 -28
-27 28 114
-115 -113
-115 -114
113 114 115
-116 27
-116 28
-27 -28 116
-117 112
-117 -115
-112 115 117
-118 -112
-118 115
112 -115 118
-119 -117
-119 -118
117 118 119
-120 -112
-120 -115
112 115 120
-121 -116
-121 -120
116 120 121
-122 -28
-122 29
28 -29 122
-123 28
-123 -29
-28 29 123
-124 -122
-124 -123
122 123 124
-125 28
-125 29
-28 -29 125
-126 121
-126 -124
-121 124 126
-127 -121
-127 124
121 -124 127
-128 -126
-128 -127
126 127 128
-129 -121
-129 -124
121 124 129
-130 -125
-130 -129
125 129 130
-131 -29
-131 30
29 -30 131
-132 29
-132 -30
-29 30 132
-133 -131
-133 -132
131 132 133
-134 29
-134 30
-29 -30 134
-135 130
-135 -133
-130 133 135
-136 -130
-136 133
130 -133 136
-137 -135
-137 -136
135 136 137
-138 -130
-138 -133
130 133 138
-139 -134
-139 -138
134 138 139
-140 -30
-140 31
30 -31 140
-141 30
-141 -31
-30 31 141
-142 -140
-142 -141
140 141 142
-143 30
-143 31
-30 -31 143
-144 139
-144 -142
-139 142 144
-145 -139
-145 142
139 -142 145
-146 -144
-146 -145
144 145 146
-147 -139
-147 -142
139 142 147
-148 -143
-148 -147
143 147 148
-149 -31
-149 32
31 -32 149
-150 31
-150 -32
-31 32 150
-151 -149
-151 -150
149 150 151
-152 31
-152 32
-31 -32 152
-153 148
-153 -151
-148 151 153
-154 -148
-154 151
148 -151 154
-155 -153
-155 -154
153 154 155
-156 -148
-156 -151
148 151 156
-157 -152
-157 -156
152 156 157
-158 -32
-158 33
32 -33 158
-159 32
-159 -33
-32 33 159
-160 -158
-160 -159
158 159 160
-161 32
-161 33
-32 -33 161
-162 157
-162 -160
-157 160 162
-163 -157
-163 160
157 -160 163
-164 -162
-164 -163
162 163 164
-165 -157
-165 -160
157 160 165
-166 -161
-166 -165
161 165 166
-167 -33
-167 34
33 -34 167
-168 33
-168 -34
-33 34 168
-169 -167
-169 -168
167 168 169
-170 33
-170 34
-33 -34 170
-171 166
-171 -169
-166 169 171
-172 -166
-172 169
166 -169 172
-173 -171
-173 -172
171 172 173
-174 -166
-174 -169
166 169 174
-175 -170
-175 -174
170 174 175
-176 -34
-176 35
34 -35 176
-177 34
-177 -35
-34 35 177
-178 -176
-178 -177
176 177 178
-179 34
-179 35
-34 -35 179
-180 175
-180 -178
-175 178 180
-181 -175
-181 178
175 -178 181
-182 -180
-182 -181
180 181 182
-183 -175
-183 -178
175 178 183
-184 -179
-184 -183
179 183 184
-185 -35
-185 36
35 -36 185
-186 35
-186 -36
-35 36 186
-187 -185
-187 -186
185 186 187
-188 35
-188 36
-35 -36 188
-189 184
-189 -187
-184 187 189
-190 -184
-190 187
184 -187 190
-191 -189
-191 -190
189 190 191
-192 -184
-192 -187
184 187 192
-193 -188
-193 -192
188 192 193
-194 -36
-194 37
36 -37 194
-195 36
-195 -37
-36 37 195
-196 -194
-196 -195
194 195 196
-197 36
-197 37
-36 -37 197
-198 193
-198 -196
-193 196 198
-199 -193
-199 196
193 -196 199
-200 -198
-200 -199
198 199 200
-201 -193
-201 -196
193 196 201
-202 -197
-202 -201
197 201 202
-203 -37
-203 38
37 -38 203
-204 37
-204 -38
-37 38 204
-205 -203
-205 -204
203 204 205
-206 37
-206 38
-37 -38 206
-207 202
-207 -205
-202 205 207
-208 -202
-208 205
202 -205 208
-209 -207
-209 -208
207 208 209
-210 -202
-210 -205
202 205 210
-211 -206
-211 -210
206 210 211
-212 -38
-212 39
38 -39 212
-213 38
-213 -39
-38 39 213
-214 -212
-214 -213
212 213 214
-215 38
-215 39
-38 -39 215
-216 211
-216 -214
-211 214 216
-217 -211
-217 214
211 -214 217
-218 -216
-218 -217
216 217 218
-219 -211
-219 -214
211 214 219
-220 -215
-220 -219
215 219 220
-221 -39
-221 40
39 -40 221
-222 39
-222 -40
-39 40 222
-223 -221
-223 -222
221 222 223
-224 39
-224 40
-39 -40 224
-225 220
-225 -223
-220 223 225
-226 -220
-226 223
220 -223 226
-227 -225
-227 -226
225 226 227
-228 -220
-228 -223
220 223 228
-229 -224
-229 -228
224 228 229
-230 -40
-230 41
40 -41 230
-231 40
-231 -41
-40 41 231
-232 -230
-232 -231
230 231 232
-233 40
-233 41
-40 -41 233
-234 229
-234 -232
-229 232 234
-235 -229
-235 232
229 -232 235
-236 -234
-236 -235
234 235 236
-237 -229
-237 -232
229 232 237
-238 -233
-238 -237
233 237 238
-239 -41
-239 42
41 -42 239
-240 41
-240 -42
-41 42 240
-241 -239
-241 -240
239 240 241
-242 41
-242 42
-41 -42 242
-243 238
-243 -241
-238 241 243
-244 -238
-244 241
238 -241 244
-245 -243
-245 -244
243 244 245
-246 -238
-246 -241
238 241 246
-247 -242
-247 -246
242 246 247
-248 -42
-248 43
42 -43 248
-249 42
-249 -43
-42 43 249
-250 -248
-250 -249
248 249 250
-251 42
-251 43
-42 -43 251
-252 247
-252 -250
-247 250 252
-253 -247
-253 250
247 -250 253
-254 -252
-254 -253
252 253 254
-255 -247
-255 -250
247 250 255
-256 -251
-256 -255
251 255 256
-257 -43
-257 44
43 -44 257
-258 43
-258 -44
-43 44 258
-259 -257
-259 -258
257 258 259
-260 43
-260 44
-43 -44 260
-261 256
-261 -259
-256 259 261
-262 -256
-262 259
256 -259 262
-263 -261
-263 -262
261 262 263
-264 -256
-264 -259
256 259 264
-265 -260
-265 -264
260 264 265
-266 -44
-266 45
44 -45 266
-267 44
-267 -45
-44 45 267
-268 -266
-268 -267
266 267 268
-269 44
-269 45
-44 -45 269
-270 265
-270 -268
-265 268 270
-271 -265
-271 268
265 -268 271
-272 -270
-272 -271
270 271 272
-273 -265
-273 -268
265 268 273
-274 -269
-274 -273
269 273 274
-275 -45
-275 46
45 -46 275
-276 45
-276 -46
-45 46 276
-277 -275
-277 -276
275 276 277
-278 45
-278 46
-45 -46 278
-279 274
-279 -277
-274 277 279
-280 -274
-280 277
274 -277 280
-281 -279
-281 -280
279 280 281
-282 -274
-282 -277
274 277 282
-283 -278
-283 -282
278 282 283
-284 -46
-284 47
46 -47 284
-285 46
-285 -47
-46 47 285
-286 -284
-286 -285
284 285 286
-287 46
-287 47
-46 -47 287
-288 283
-288 -286
-283 286 288
-289 -283
-289 286
283 -286 289
-290 -288
-290 -289
288 289 290
-291 -283
-291 -286
283 286 291
-292 -287
-292 -291
287 291 292
-293 -47
-293 48
47 -48 293
-294 47
-294 -48
-47 48 294
-295 -293
-295 -294
293 294 295
-296 47
-296 48
-47 -48 296
-297 292
-297 -295
-292 295 297
-298 -292
-298 295
292 -295 298
-299 -297
-299 -298
297 298 299
-300 -292
-300 -295
292 295 300
-301 -296
-301 -300
296 300 301
-302 -48
-302 49
48 -49 302
-303 48
-303 -49
-48 49 303
-304 -302
-304 -303
302 303 304
-305 48
-305 49
-48 -49 305
-306 301
-306 -304
-301 304 306
-307 -301
-307 304
301 -304 307
-308 -306
-308 -307
306 307 308
-309 -301
-309 -304
301 304 309
-310 -305
-310 -309
305 309 310
-311 -49
-311 50
49 -50 311
-312 49
-312 -50
-49 50 312
-313 -311
-313 -312
311 312 313
-314 49
-314 50
-49 -50 314
-315 310
-315 -313
-310 313 315
-316 -310
-316 313
310 -313 316
-317 -315
-317 -316
315 316 317
-318 -310
-318 -313
310 313 318
-319 -314
-319 -318
314 318 319
-320 23
-320 -83
-23 83 320
-321 -23
-321 25
23 -25 321
-322 -320
-322 -321
320 321 322
-323 23
-323 -92
-23 92 323
-324 -23
-324 26
23 -26 324
-325 -323
-325 -324
323 324 325
-326 23
-326 -101
-23 101 326
-327 -23
-327 27
23 -27 327
-328 -326
-328 -327
326 327 328
-329 23
-329 -110
-23 110 329
-330 -23
-330 28
23 -28 330
-331 -329
-331 -330
329 330 331
-332 23
-332 -119
-23 119 332
-333 -23
-333 29
23 -29 333
-334 -332
-334 -333
332 333 334
-335 23
-335 -128
-23 128 335
-336 -23
-336 30
23 -30 336
-337 -335
-337 -336
335 336 337
-338 23
-338 -137
-23 137 338
-339 -23
-339 31
23 -31 339
-340 -338
-340 -339
338 339 340
-341 23
-341 -146
-23 146 341
-342 -23
-342 32
23 -32 342
-343 -341
-343 -342
341 342 343
-344 23
-344 -155
-23 155 344
-345 -23
-345 33
23 -33 345
-346 -344
-346 -345
344 345 346
-347 23
-347 -164
-23 164 347
-348 -23
-348 34
23 -34 348
-349 -347
-349 -348
347 348 349
-350 23
-350 -173
-23 173 350
-351 -23
-351 35
23 -35 351
-352 -350
-352 -351
350 351 352
-353 23
-353 -182
-23 182 353
-354 -23
-354 36
23 -36 354
-355 -353
-355 -354
353 354 355
-356 23
-356 -191
-23 191 356
-357 -23
-357 37
23 -37 357
-358 -356
-358 -357
356 357 358
-359 23
-359 -200
-23 200 359
-360 -23
-360 38
23 -38 360
-361 -359
-361 -360
359 360 361
-362 23
-362 -209
-23 209 362
-363 -23
-363 39
23 -39 363
-364 -362
-364 -363
362 363 364
-365 23
-365 -218
-23 218 365
-366 -23
-366 40
23 -40 366
-367 -365
-367 -366
365 366 367
-368 23
-368 -227
-23 227 368
-369 -23
-369 41
23 -41 369
-370 -368
-370 -369
368 369 370
-371 23
-371 -236
-23 236 371
-372 -23
-372 42
23 -42 372
-373 -371
-373 -372
371 372 373
-374 23
-374 -245
-23 245 374
-375 -23
-375 43
23 -43 375
-376 -374
-376 -375
374 375 376
-377 23
-377 -254
-23 254 377
-378 -23
-378 44
23 -44 378
-379 -377
-379 -378
377 378 379
-380 23
-380 -263
-23 263 380
-381 -23
-381 45
23 -45 381
-382 -380
-382 -381
380 381 382
-383 23
-383 -272
-23 272 383
-384 -23
-384 46
23 -46 384
-385 -383
-385 -384
383 384 385
-386 23
-386 -281
-23 281 386
-387 -23
-387 47
23 -47 387
-388 -386
-388 -387
386 387 388
-389 23
-389 -290
-23 290 389
-390 -23
-390 48
23 -48 390
-391 -389
-391 -390
389 390 391
-392 23
-392 -299
-23 299 392
-393 -23
-393 49
23 -49 393
-394 -392
-394 -393
392 393 394
-395 23
-395 -308
-23 308 395
-396 -23
-396 50
23 -50 396
-397 -395
-397 -396
395 396 397
-398 23
-398 -317
-23 317 398
-399 1
-399 76
-1 -76 399
-400 -76
-400 77
76 -77 400
-401 -399
-401 -400
399 400 401
-402 2
-402 76
-2 -76 402
-403 -76
-403 -322
76 322 403
-404 -402
-404 -403
402 403 404
-405 3
-405 76
-3 -76 405
-406 -76
-406 -325
76 325 406
-407 -405
-407 -406
405 406 407
-408 4
-408 76
-4 -76 408
-409 -76
-409 -328
76 328 409
-410 -408
-410 -409
408 409 410
-411 5
-411 76
-5 -76 411
-412 -76
-412 -331
76 331 412
-413 -411
-413 -412
411 412 413
-414 6
-414 76
-6 -76 414
-415 -76
-415 -334
76 334 415
-416 -414
-416 -415
414 415 416
-417 7
-417 76
-7 -76 417
-418 -76
-418 -337
76 337 418
-419 -417
-419 -418
417 418 419
-420 8
-420 76
-8 -76 420
-421 -76
-421 -340
76 340 421
-422 -420
-422 -421
420 421 422
-423 9
-423 76
-9 -76 423
-424 -76
-424 -343
76 343 424
-425 -423
-425 -424
423 424 425
-426 10
-426 76
-10 -76 426
-427 -76
-427 -346
76 346 427
-428 -426
-428 -427
426 427 428
-429 11
-429 76
-11 -76 429
-430 -76
-430 -349
76 349 430
-431 -429
-431 -430
429 430 431
-432 12
-432 76
-12 -76 432
-433 -76
-433 -352
76 352 433
-434 -432
-434 -433
432 433 434
-435 13
-435 76
-13 -76 435
-436 -76
-436 -355
76 355 436
-437 -435
-437 -436
435 436 437
-438 14
-438 76
-14 -76 438
-439 -76
-439 -358
76 358 439
-440 -438
-440 -439
438 439 440
-441 15
-441 76
-15 -76 441
-442 -76
-442 -361
76 361 442
-443 -441
-443 -442
441 442 443
-444 16
-444 76
-16 -76 444
-445 -76
-445 -364
76 364 445
-446 -444
-446 -445
444 445 446
-447 17
-447 76
-17 -76 447
-448 -76
-448 -367
76 367 448
-449 -447
-449 -448
447 448 449
-450 18
-450 76
-18 -76 450
-451 -76
-451 -370
76 370 451
-452 -450
-452 -451
450 451 452
-453 19
-453 76
-19 -76 453
-454 -76
-454 -373
76 373 454
-455 -453
-455 -454
453 454 455
-456 20
-456 76
-20 -76 456
-457 -76
-457 -376
76 376 457
-458 -456
-458 -457
456 457 458
-459 21
-459 76
-21 -76 459
-460 -76
-460 -379
76 379 460
-461 -459
-461 -460
459 460 461
-462 22
-462 76
-22 -76 462
-463 -76
-463 -382
76 382 463
-464 -462
-464 -463
462 463 464
-465 -76
-465 -385
76 385 465
-466 -76
-466 -388
76 388 466
-467 -76
-467 -391
76 391 467
-468 -76
-468 -394
76 394 468
-469 -76
-469 -397
76 397 469
-470 -76
-470 398
76 -398 470
-471 -50
-471 319
50 -319 471
-472 23
-472 -471
-23 471 472
472
